1820645
0, 11, 31, 55, 24, 29, 28, 5, 40, 2, 20, 62, 15, 58, 67, 34, 50, 38, 61, 36, 52, 13, 43, 9, 17, 56, 32, 51, 21, 30, 27, 49, 35, 7, 14, 8, 57, 16, 26, 44, 1, 47, 3, 19, 64, 53, 12, 46, 23, 60, 63, 37, 66, 6, 42, 33, 45, 25, 54, 10, 65, 18, 48, 22, 59, 4, 39, 41
